c A0 = 1
c A1 = 2
c A10 = 3
c A11 = 4
c A12 = 5
c A13 = 6
c A14 = 7
c A15 = 8
c A16 = 9
c A17 = 10
c A18 = 11
c A19 = 12
c A2 = 13
c A3 = 14
c A4 = 15
c A5 = 16
c A6 = 17
c A7 = 18
c A8 = 19
c A9 = 20
c F1 = 21
c F2 = -22
c F3 = -24
c F4 = -7
c F5 = 25
c F6 = 31
c F7 = 34
c F8 = 37
c F9 = -41
c F10 = 43
c F11 = 1
c F12 = 49
c F13 = 15
c F14 = 13
c F15 = 16
c F16 = 19
c F17 = 52
c F18 = -54
c F19 = 56
c F20 = 60
c F21 = 62
c F22 = 67
c F23 = 70
c F24 = 9
c F25 = 12
c F26 = 71
c F27 = -73
c F28 = 75
c F29 = 81
c F30 = -16
p wcnf 82 216 31
1 21 0
1 -22 0
1 -24 0
1 -7 0
1 25 0
1 31 0
1 34 0
1 37 0
1 -41 0
1 43 0
1 1 0
1 49 0
1 15 0
1 13 0
1 16 0
1 19 0
1 52 0
1 -54 0
1 56 0
1 60 0
1 62 0
1 67 0
1 70 0
1 9 0
1 12 0
1 71 0
1 -73 0
1 75 0
1 81 0
1 -16 0
31 21 -14 16 0
31 -21 14 0
31 -21 -16 0
31 22 -23 -18 0
31 -22 23 0
31 -22 18 0
31 23 -9 -12 0
31 -23 9 0
31 -23 12 0
31 -24 18 4 0
31 24 -18 0
31 24 -4 0
31 -25 26 27 0
31 25 -26 0
31 25 -27 0
31 26 -28 -16 0
31 -26 28 0
31 -26 16 0
31 28 -5 -10 0
31 -28 5 0
31 -28 10 0
31 27 -29 -30 0
31 -27 29 0
31 -27 30 0
31 29 -4 -11 0
31 -29 4 0
31 -29 11 0
31 30 -16 -19 0
31 -30 16 0
31 -30 19 0
31 -31 32 13 0
31 31 -32 0
31 31 -13 0
31 32 -33 -4 0
31 -32 33 0
31 -32 4 0
31 33 -19 -20 0
31 -33 19 0
31 -33 20 0
31 -34 -35 -14 0
31 34 35 0
31 34 14 0
31 -35 36 4 0
31 35 -36 0
31 35 -4 0
31 -36 16 19 0
31 36 -16 0
31 36 -19 0
31 37 -38 -39 0
31 -37 38 0
31 -37 39 0
31 -38 40 11 0
31 38 -40 0
31 38 -11 0
31 -40 12 18 0
31 40 -12 0
31 40 -18 0
31 39 -5 -20 0
31 -39 5 0
31 -39 20 0
31 41 -4 -42 0
31 -41 4 0
31 -41 42 0
31 42 -12 -3 0
31 -42 12 0
31 -42 3 0
31 43 -44 -45 0
31 -43 44 0
31 -43 45 0
31 44 2 -46 0
31 -44 -2 0
31 -44 46 0
31 46 -5 -47 0
31 -46 5 0
31 -46 47 0
31 47 -13 -20 0
31 -47 13 0
31 -47 20 0
31 45 -12 48 0
31 -45 12 0
31 -45 -48 0
31 -48 2 15 0
31 48 -2 0
31 48 -15 0
31 49 -50 3 0
31 -49 50 0
31 -49 -3 0
31 -50 16 51 0
31 50 -16 0
31 50 -51 0
31 -51 14 7 0
31 51 -14 0
31 51 -7 0
31 -52 11 53 0
31 52 -11 0
31 52 -53 0
31 53 -8 -2 0
31 -53 8 0
31 -53 2 0
31 -54 -15 55 0
31 54 15 0
31 54 -55 0
31 55 -10 -3 0
31 -55 10 0
31 -55 3 0
31 -56 10 57 0
31 56 -10 0
31 56 -57 0
31 -57 6 58 0
31 57 -6 0
31 57 -58 0
31 -58 59 5 0
31 58 -59 0
31 58 -5 0
31 -59 1 14 0
31 59 -1 0
31 59 -14 0
31 60 13 -61 0
31 -60 -13 0
31 -60 61 0
31 61 -19 -15 0
31 -61 19 0
31 -61 15 0
31 -62 63 64 0
31 62 -63 0
31 62 -64 0
31 -63 65 13 0
31 63 -65 0
31 63 -13 0
31 65 -7 -12 0
31 -65 7 0
31 -65 12 0
31 -64 66 19 0
31 64 -66 0
31 64 -19 0
31 66 -4 -11 0
31 -66 4 0
31 -66 11 0
31 67 -68 69 0
31 -67 68 0
31 -67 -69 0
31 68 16 -16 0
31 -68 -16 0
31 -68 16 0
31 -69 3 11 0
31 69 -3 0
31 69 -11 0
31 -70 16 5 0
31 70 -16 0
31 70 -5 0
31 -71 -13 72 0
31 71 13 0
31 71 -72 0
31 72 -3 -7 0
31 -72 3 0
31 -72 7 0
31 73 -74 -7 0
31 -73 74 0
31 -73 7 0
31 -74 19 11 0
31 74 -19 0
31 74 -11 0
31 -75 76 77 0
31 75 -76 0
31 75 -77 0
31 76 -78 -5 0
31 -76 78 0
31 -76 5 0
31 -78 6 5 0
31 78 -6 0
31 78 -5 0
31 77 -15 -79 0
31 -77 15 0
31 -77 79 0
31 -79 2 80 0
31 79 -2 0
31 79 -80 0
31 80 -19 -1 0
31 -80 19 0
31 -80 1 0
31 -81 -14 -82 0
31 81 14 0
31 81 82 0
31 -82 -17 4 0
31 82 17 0
31 82 -4 0
